! b97-3c opt
%maxcore 5000
* xyz 0 1
C  -2.5764  -1.2025  1.7085
C  -2.2253  -0.8264  0.2981
C  -2.8262  0.5090  -0.1092
C  -1.6381  1.4218  -0.4661
C  -0.6079  0.8117  0.3385
C  0.7977  1.0237  0.2019
C  1.2786  1.9470  1.3387
C  1.3266  1.6039  -1.0600
C  1.4124  -0.3445  0.5332
C  0.2051  -1.2166  0.9575
C  -0.8002  -0.6780  0.0176
C  -0.4792  -1.0384  -1.3761
C  0.9773  -1.2587  -1.6426
C  1.8903  -0.9305  -0.7369
C  3.3459  -1.1347  -0.9659
H  -2.5721  -2.3122  1.7730
H  -3.6237  -0.8729  1.8869
H  -1.9554  -0.7271  2.4707
H  -2.6727  -1.5835  -0.3789
H  -3.5340  0.4282  -0.9373
H  -3.2628  0.9485  0.8148
H  -1.8464  2.4693  -0.0987
H  -1.4941  1.4969  -1.5372
H  -0.9083  0.8868  1.4283
H  2.2599  2.3915  1.0992
H  1.4076  1.3537  2.2595
H  0.5374  2.7278  1.5319
H  2.3761  1.3475  -1.2041
H  1.2914  2.7242  -0.9482
H  0.7452  1.3855  -1.9649
H  2.1585  -0.3013  1.3208
H  0.0235  -0.9347  2.0148
H  0.4477  -2.2747  0.8286
H  -0.9538  -2.0480  -1.5687
H  -0.9334  -0.3788  -2.1452
H  1.3224  -1.6909  -2.5790
H  3.9603  -0.3245  -0.5272
H  3.6032  -2.1323  -0.5115
H  3.5427  -1.2660  -2.0646
*