! b97-3c opt
%maxcore 5000
* xyz 0 1
O  1.2904  -0.2637  -0.1466
C  -0.0360  0.0552  0.0151
O  -0.8938  -0.8356  -0.1334
H  -0.3606  1.0441  0.2649
*