! b97-3c opt
%maxcore 5000
* xyz 0 1
C  -0.6303  -0.0564  -0.0720
C  0.8319  0.1073  0.1018
O  1.5827  -0.8365  -0.0880
H  -1.1464  0.8810  -0.3543
H  -0.7974  -0.7825  -0.8889
H  -1.0362  -0.3897  0.9044
H  1.1958  1.0767  0.3971
*