! b97-3c opt
%maxcore 5000
* xyz 0 1
O  2.3155  -1.2143  -0.5280
C  1.1650  -0.7219  -0.3972
C  0.7519  0.7131  -0.3656
C  -0.4641  0.6249  0.5684
C  -1.0919  -0.6547  0.0832
O  0.0136  -1.4589  -0.2514
H  0.3539  0.9995  -1.3493
H  1.5254  1.3764  0.0266
H  -0.0493  0.4315  1.5725
H  -1.1032  1.5004  0.4892
H  -1.7720  -0.4964  -0.7730
H  -1.6449  -1.0996  0.9245
*