! b97-3c opt
%maxcore 5000
* xyz 0 1
C  -1.3075  -0.2749  0.3776
C  -0.0368  -0.1053  -0.4001
C  1.1909  -0.0388  0.4432
O  -0.1516  1.1161  -1.0987
H  -1.7168  0.7384  0.6333
H  -1.2255  -0.9115  1.2597
H  -2.0771  -0.7499  -0.2891
H  0.0779  -0.8945  -1.1876
H  1.6544  0.9773  0.4577
H  1.0324  -0.3659  1.4979
H  1.9708  -0.7341  0.0268
H  0.5888  1.2430  -1.7207
*