! b97-3c opt
%maxcore 5000
* xyz 0 1
C  -0.9530  -0.7975  -0.0303
C  -0.0588  0.3875  -0.2536
C  1.3394  0.0500  0.1958
O  -0.5023  1.5295  0.3995
H  -1.7141  -0.7968  -0.8419
H  -1.4112  -0.8208  0.9836
H  -0.3115  -1.7108  -0.1275
H  -0.0467  0.6442  -1.3471
H  1.3416  -0.8731  0.8341
H  1.8124  0.9032  0.7295
H  1.9406  -0.2242  -0.7049
H  -1.4365  1.7088  0.1628
*