! b97-3c opt
%maxcore 5000
* xyz 0 1
C  0.5036  3.0552  0.9496
C  0.0445  2.0893  -0.1304
C  -1.4027  2.5019  -0.4495
C  -2.2668  1.2813  -0.1947
C  -1.2272  0.1710  -0.4252
C  -0.1203  0.7552  0.4741
C  0.9827  -0.1471  0.7186
C  1.1479  -0.9242  -0.6345
C  0.5499  -2.2596  -0.4308
C  -0.9269  -2.2508  -0.6974
C  -1.6800  -1.1667  0.0183
C  -3.1543  -1.3535  -0.3629
O  -1.6305  -1.2728  1.3977
C  2.2737  -0.3588  0.1473
C  3.1345  -1.5219  0.6995
C  3.1857  0.6345  -0.4966
H  1.5366  3.4144  0.7660
H  -0.1342  3.9548  1.0123
H  0.5070  2.5876  1.9560
H  0.5851  2.1640  -1.0615
H  -1.7661  3.3137  0.1798
H  -1.5326  2.7895  -1.4949
H  -3.0750  1.1800  -0.9545
H  -2.6151  1.2046  0.8365
H  -0.9881  0.2497  -1.4934
H  -0.6980  0.9682  1.4340
H  0.7776  -0.8209  1.6188
H  0.9321  -0.3785  -1.5536
H  0.9892  -3.0635  -1.0492
H  0.6735  -2.5797  0.6448
H  -1.0997  -2.1104  -1.7823
H  -1.3790  -3.2433  -0.4419
H  -3.3598  -0.8526  -1.3406
H  -3.4291  -2.4103  -0.3991
H  -3.7326  -0.7967  0.4108
H  -2.1103  -2.0571  1.7532
H  4.0065  -1.0724  1.2576
H  3.5233  -2.1374  -0.1230
H  2.5122  -2.1154  1.3974
H  4.2205  0.6634  -0.0417
H  2.8644  1.6557  -0.5686
H  3.3778  0.2597  -1.5458
*