! b97-3c opt
%maxcore 5000
* xyz 0 1
C  1.4335  0.2594  0.2416
S  0.0099  -0.5508  -0.5003
C  -1.4433  0.2269  0.1842
O  0.0547  -2.0138  -0.1707
O  0.0693  -0.4062  -1.9856
H  1.1378  1.2916  0.5556
H  1.6067  -0.2922  1.2014
H  2.2899  0.2359  -0.4345
H  -1.7608  0.9909  -0.5719
H  -2.2095  -0.5372  0.3719
H  -1.1882  0.7954  1.1083
*