! b97-3c opt
%maxcore 5000
* xyz 0 1
C  -0.6498  -0.0246  -0.0320
C  0.8199  0.0628  0.0379
O  1.6385  -1.0560  0.0239
O  1.3903  1.1838  0.1144
H  -1.1092  -0.4364  0.8950
H  -1.0858  0.9688  -0.1789
H  -1.0037  -0.6984  -0.8602
*