! b97-3c opt
%maxcore 5000
* xyz 0 1
C  -2.9273  0.0805  0.1543
C  -1.4379  -0.0076  0.1621
C  -0.6408  1.1133  0.1155
C  0.7244  0.9375  0.1268
O  1.5317  2.0446  0.0808
C  1.3180  -0.3103  0.1826
C  2.8062  -0.4766  0.1938
C  0.4797  -1.4044  0.2279
C  -0.8950  -1.2892  0.2193
H  -3.3762  -0.8333  0.5942
H  -3.2836  0.9572  0.7568
H  -3.2692  0.1716  -0.8979
H  -1.0741  2.1000  0.0715
H  1.2360  2.9969  0.0386
H  3.1361  -0.4451  -0.8764
H  3.0169  -1.4542  0.6268
H  3.2885  0.3681  0.6950
H  0.9219  -2.3886  0.2719
H  -1.5550  -2.1604  0.2554
*