! b97-3c opt
%maxcore 5000
* xyz 0 1
C  2.5155  -0.7668  0.1244
C  1.1921  -0.0947  -0.0492
C  1.1531  1.1812  -0.5714
C  -0.0636  1.8063  -0.7340
C  -1.2247  1.1294  -0.3649
C  -1.2008  -0.1459  0.1583
C  -2.4616  -0.8264  0.5366
C  0.0342  -0.7586  0.3143
H  2.5775  -1.6807  -0.4959
H  2.6292  -1.0084  1.2011
H  3.3291  -0.0908  -0.1528
H  2.0849  1.6572  -0.8399
H  -0.1308  2.8050  -1.1399
H  -2.1978  1.6045  -0.4847
H  -3.2643  -0.0810  0.5941
H  -2.3550  -1.4180  1.4694
H  -2.6955  -1.5444  -0.2919
H  0.0786  -1.7680  0.7263
*