! b97-3c opt
%maxcore 5000
* xyz 0 1
C  -2.0660  -0.1182  -0.1528
C  -0.5587  -0.1949  -0.1148
C  0.3191  0.7500  0.3288
C  1.6256  0.4650  0.2687
C  1.9781  -0.7604  -0.2367
S  0.4698  -1.4610  -0.6058
H  -2.3613  0.9286  -0.1966
H  -2.3932  -0.6724  -1.0393
H  -2.3964  -0.6374  0.7886
H  -0.0387  1.7304  0.7296
H  2.4378  1.1520  0.5994
H  2.9840  -1.1816  -0.3689
*