! b97-3c opt
%maxcore 5000
* xyz 0 1
C  2.6196  -1.1411  -0.1365
C  1.2617  -0.5416  -0.0712
C  1.0690  0.8243  -0.1352
C  -0.1788  1.4062  -0.0770
C  -0.3661  2.8802  -0.1475
C  -1.2497  0.5331  0.0515
C  -1.0723  -0.8337  0.1167
C  -2.2291  -1.7572  0.2544
C  0.1855  -1.3948  0.0565
H  2.6477  -2.0653  -0.7561
H  3.3031  -0.3635  -0.5717
H  2.9466  -1.3856  0.8974
H  1.9213  1.4684  -0.2346
H  0.5509  3.4030  0.2075
H  -0.6635  3.2249  -1.1587
H  -1.1698  3.1865  0.5854
H  -2.2329  0.9832  0.0979
H  -2.0646  -2.4871  1.0803
H  -3.1406  -1.1918  0.5273
H  -2.4569  -2.2808  -0.6945
H  0.3186  -2.4673  0.1081
*