! b97-3c opt
%maxcore 5000
* xyz 0 1
C  2.4624  -1.3046  -0.3661
C  1.1994  -0.5539  -0.6507
C  0.1076  -0.8195  0.3577
C  0.1884  0.1889  1.5032
C  -0.6069  1.1319  0.5859
C  0.4313  1.8721  -0.2174
C  1.5013  0.9181  -0.6344
O  2.5888  1.3518  -0.9503
C  -1.1250  -0.0972  -0.0979
C  -1.3713  -0.0281  -1.5537
C  -2.3851  -0.5841  0.6299
H  3.2797  -0.8200  -0.9706
H  2.3285  -2.3595  -0.6674
H  2.7663  -1.2356  0.6902
H  0.7940  -0.8626  -1.6397
H  -0.0346  -1.8541  0.6642
H  -0.3742  -0.1234  2.3962
H  1.1873  0.5313  1.7606
H  -1.3311  1.7665  1.1031
H  0.9324  2.5727  0.5149
H  0.0338  2.4716  -1.0304
H  -2.3990  0.3765  -1.7169
H  -1.4259  -1.0867  -1.9427
H  -0.6884  0.5839  -2.1386
H  -3.2289  -0.0142  0.1607
H  -2.2884  -0.3854  1.7096
H  -2.5424  -1.6365  0.3800
*