! b97-3c opt
%maxcore 5000
* xyz 0 1
O  -0.3746  2.0350  -1.5611
C  -0.2104  1.3181  -0.6125
C  1.1631  0.9709  -0.1724
C  1.2707  -0.5515  -0.3096
C  0.2026  -1.1865  0.5223
C  -1.1764  -0.7708  0.1272
C  -1.3180  0.7320  0.1814
H  1.9391  1.4931  -0.7277
H  1.2521  1.2055  0.9281
H  2.2580  -0.8861  -0.0085
H  1.0995  -0.8251  -1.3607
H  0.3263  -1.0095  1.6010
H  0.2977  -2.2971  0.3830
H  -1.3697  -1.1343  -0.9097
H  -1.9079  -1.2130  0.8012
H  -2.3068  1.0707  -0.1261
H  -1.1453  1.0486  1.2440
*