! b97-3c opt
%maxcore 5000
* xyz 0 1
C  3.6456  1.4840  -0.0233
C  2.7999  0.2634  -0.1356
C  3.3571  -1.0579  -0.5116
C  1.5130  0.3768  0.1109
C  0.4659  -0.5861  0.0880
C  0.2313  -1.9820  0.0387
C  -1.1312  -2.1785  0.6711
C  -1.1565  -3.3715  1.6116
C  -2.2285  -1.4829  0.5111
C  -2.6311  -0.3102  -0.2708
C  -2.4391  1.0671  0.3176
C  -1.4607  1.8884  -0.4916
C  -2.1982  2.5471  -1.6556
C  -0.2186  2.1229  -0.3985
C  0.9028  1.7447  0.5061
H  4.6839  1.1874  -0.3257
H  3.3220  2.2759  -0.7328
H  3.6392  1.9005  1.0042
H  4.2692  -0.9599  -1.1325
H  2.6289  -1.6442  -1.1043
H  3.6241  -1.5903  0.4178
H  -0.0203  -0.3640  1.0977
H  -0.0759  -0.2639  -0.8245
H  0.9951  -2.6425  0.5067
H  0.1171  -2.4056  -0.9989
H  -0.6275  -4.2307  1.1630
H  -0.5991  -3.0476  2.5108
H  -2.1687  -3.6862  1.8463
H  -3.0998  -1.8727  1.1358
H  -2.3191  -0.3598  -1.3592
H  -3.7671  -0.3480  -0.4361
H  -3.3646  1.6311  0.4868
H  -1.9758  0.9490  1.3115
H  -3.1907  2.9273  -1.3367
H  -1.6619  3.3883  -2.0793
H  -2.3297  1.7458  -2.4045
H  0.2046  2.8013  -1.2068
H  0.5327  1.6380  1.5605
H  1.7317  2.4453  0.5323
*