! b97-3c opt
%maxcore 5000
* xyz 0 1
C  -1.8497  -0.4334  0.0832
C  -0.3657  -0.2879  0.0348
C  0.3174  0.8998  -0.0995
S  -0.4086  2.5303  -0.2459
C  1.6524  0.6037  -0.1004
C  1.7384  -0.7654  0.0345
O  0.5233  -1.2278  0.1084
H  -2.3283  0.5516  -0.0732
H  -2.1676  -0.7907  1.0863
H  -2.2225  -1.1281  -0.7019
H  2.4316  1.3472  -0.1925
H  2.6792  -1.2994  0.0664
*