! b97-3c opt
%maxcore 5000
* xyz 0 1
C  -1.3463  -0.9705  -0.9409
C  -0.7541  -0.2099  0.2120
C  -1.7665  -0.0613  1.2934
C  0.4773  -0.8775  0.7757
C  1.3164  -1.3377  -0.3795
C  1.8269  -0.0348  -1.0111
C  1.2114  1.0551  -0.1501
C  1.2785  0.3568  1.2211
C  -0.2708  1.0964  -0.3163
C  -1.0251  2.0476  -0.8114
H  -1.2860  -2.0560  -0.8470
H  -0.9072  -0.6538  -1.9001
H  -2.4343  -0.6888  -0.9804
H  -2.1243  -1.0639  1.5726
H  -2.6567  0.5227  0.9885
H  -1.2806  0.3758  2.1984
H  0.3075  -1.5867  1.5589
H  2.1567  -1.9432  0.0248
H  0.7486  -1.9409  -1.1128
H  1.4929  0.0413  -2.0529
H  2.9041  -0.0076  -0.8554
H  1.7092  2.0012  -0.1777
H  2.3256  0.1272  1.4014
H  0.7719  0.9229  1.9964
H  -0.5786  2.9658  -1.1721
H  -2.0964  1.9198  -0.8619
*