! b97-3c opt
%maxcore 5000
* xyz 0 1
C  -2.7586  0.6308  -0.0082
C  -1.2647  0.5702  0.0146
C  -0.5996  -0.6353  -0.0593
C  -1.4366  -1.8580  -0.1616
C  0.7801  -0.6878  -0.0380
O  1.4024  -1.9406  -0.1160
C  1.5595  0.4465  0.0570
C  3.0474  0.3661  0.0782
C  0.8873  1.6496  0.1305
C  -0.4922  1.7093  0.1097
H  -3.2109  -0.2468  0.4887
H  -3.1134  1.5265  0.5723
H  -3.1572  0.7703  -1.0296
H  -0.7514  -2.7309  -0.1641
H  -1.9776  -1.8724  -1.1336
H  -2.1027  -1.9838  0.7105
H  2.3940  -2.0166  -0.1034
H  3.4734  1.3831  0.1091
H  3.4365  -0.1348  -0.8368
H  3.4055  -0.1616  1.0058
H  1.4864  2.5397  0.2048
H  -1.0073  2.6767  0.1693
*