! b97-3c opt
%maxcore 5000
* xyz 0 1
S  0.0311  1.6707  0.2150
C  -1.2722  0.5721  0.2678
C  -0.6722  -0.6311  0.0187
C  0.6542  -0.6256  -0.1813
C  1.2953  0.5805  -0.1196
H  -2.3431  0.7743  0.4564
H  -1.3073  -1.5464  -0.0056
H  1.2357  -1.5540  -0.3914
H  2.3784  0.7595  -0.2600
*