! b97-3c opt
%maxcore 5000
* xyz 0 1
C  -2.6924  -0.8312  -0.9159
C  -1.6473  -1.1421  0.1763
C  -0.6626  -2.0417  -0.4359
C  0.6471  -2.2389  0.2372
C  1.2703  -1.0304  0.7913
C  0.9782  0.0775  -0.2610
C  -0.0956  0.8714  0.3604
C  -1.2093  0.0456  0.9031
C  -2.3309  1.0678  1.0424
C  -2.0467  2.1777  0.0597
C  -0.6911  1.9310  -0.4771
C  -0.1086  2.5207  -1.4930
C  2.3020  -0.1962  0.2345
C  3.2936  -0.8572  -0.7089
C  2.9491  0.8462  1.1164
H  -2.4058  0.0324  -1.5168
H  -2.7278  -1.6995  -1.6413
H  -3.7170  -0.7941  -0.4954
H  -2.2515  -1.7595  0.9166
H  -1.1288  -3.0746  -0.5117
H  -0.5523  -1.7667  -1.5280
H  0.5535  -3.0190  1.0410
H  1.3455  -2.6953  -0.5101
H  0.9965  -0.8347  1.8485
H  0.7578  -0.2345  -1.2974
H  0.3703  1.4229  1.2349
H  -0.9495  -0.2434  1.9556
H  -2.3450  1.5235  2.0608
H  -3.3244  0.6718  0.8559
H  -2.0343  3.1826  0.5707
H  -2.7778  2.2682  -0.7463
H  -0.6385  3.2986  -2.0521
H  0.8890  2.3042  -1.8488
H  3.3766  -1.9462  -0.4512
H  4.2615  -0.3551  -0.7400
H  2.8661  -0.8497  -1.7461
H  3.9946  0.5349  1.3314
H  3.0477  1.8293  0.5729
H  2.4379  1.0038  2.0673
*