! b97-3c opt
%maxcore 5000
* xyz 0 1
C  2.8229  -0.4216  -0.8284
C  1.5493  0.1134  -0.3509
C  1.2802  1.4032  -0.3973
C  -0.0644  1.8899  0.1165
C  -0.7780  0.7227  0.7453
O  -1.9565  1.0331  1.3879
C  0.1706  -0.1553  1.5581
C  0.5326  -0.7947  0.1976
C  -0.8704  -0.4570  -0.2025
C  -1.8146  -1.5000  0.3748
C  -1.1711  -0.1676  -1.6104
H  2.7256  -1.2005  -1.6097
H  3.5089  0.3573  -1.2342
H  3.3680  -0.8711  0.0448
H  1.9346  2.1770  -0.7739
H  0.0914  2.6514  0.8861
H  -0.6281  2.2901  -0.7246
H  -1.8679  0.7977  2.3338
H  -0.3952  -0.8582  2.1813
H  0.9995  0.3765  2.0284
H  0.8095  -1.8445  0.2566
H  -2.4961  -1.0417  1.1306
H  -2.4654  -1.9262  -0.4201
H  -1.2991  -2.3322  0.8522
H  -2.0574  0.5339  -1.6460
H  -0.3857  0.3261  -2.1952
H  -1.5432  -1.1016  -2.1007
*