! b97-3c opt
%maxcore 5000
* xyz 0 1
C  3.2022  -0.8539  0.9362
C  2.0622  -0.6941  -0.0564
C  2.2376  -1.6194  -1.2662
C  1.6087  0.6551  -0.3162
C  1.7809  1.8348  0.5641
C  0.5760  2.7372  0.4708
C  -0.5977  2.0862  -0.1461
C  -1.0955  2.7172  -1.1819
C  -1.2669  0.8610  0.2321
C  -2.6585  0.6362  -0.2094
C  -2.8974  -0.8009  0.2932
C  -1.5046  -1.4447  0.2834
C  -1.5954  -2.6747  -0.5602
O  -1.1895  -1.8237  1.5831
C  -0.5443  -0.4223  -0.2190
C  0.7649  -0.3712  0.4736
H  2.9329  -0.3848  1.9174
H  3.3699  -1.9277  1.1312
H  4.1247  -0.3434  0.5864
H  1.5639  -1.3283  -2.0763
H  1.9672  -2.6674  -0.9865
H  3.2979  -1.5267  -1.5806
H  1.2982  0.8961  -1.3515
H  2.6716  2.4137  0.2532
H  1.9617  1.4724  1.6069
H  0.3543  3.0909  1.5047
H  0.8249  3.6448  -0.1105
H  -1.9515  2.4135  -1.7778
H  -0.6214  3.6454  -1.5004
H  -1.2687  0.7682  1.3619
H  -3.3603  1.3038  0.3121
H  -2.8450  0.6853  -1.2972
H  -3.5718  -1.2808  -0.4272
H  -3.3011  -0.7661  1.3023
H  -2.3757  -3.3307  -0.1167
H  -0.6202  -3.2252  -0.5372
H  -1.9092  -2.4664  -1.5984
H  -1.6858  -1.2822  2.2436
H  -0.4180  -0.4161  -1.3183
H  0.6789  -0.2111  1.5777
*