! b97-3c opt
%maxcore 5000
* xyz 0 1
C  2.1204  0.0994  0.0114
C  0.6069  0.1544  0.0352
C  -0.2201  -0.8349  -0.1863
C  -1.6141  -0.3983  -0.0756
C  -1.4962  1.0402  0.2546
O  -2.4914  1.7848  0.4333
O  -0.1436  1.2871  0.3014
H  2.4714  1.1060  -0.2241
H  2.4311  -0.5612  -0.8469
H  2.5298  -0.2972  0.9354
H  0.0733  -1.8578  -0.4239
H  -2.2052  -0.5721  -0.9970
H  -2.0624  -0.9506  0.7825
*