! b97-3c opt
%maxcore 5000
* xyz 0 1
C  4.1348  -0.0739  0.2420
C  2.6586  -0.1210  0.1760
C  1.9600  0.8431  -0.5126
C  0.5692  0.8483  -0.6077
C  -0.1516  -0.1465  0.0076
C  0.5357  -1.1364  0.7126
C  1.9074  -1.0986  0.7778
C  -1.6356  -0.2439  -0.0253
C  -2.0905  -0.2392  1.4399
C  -2.0149  -1.6212  -0.5838
C  -2.3205  0.8267  -0.7841
C  -1.4564  1.8405  -1.4026
C  -0.1381  1.8854  -1.3455
H  4.4958  0.9560  0.1102
H  4.4587  -0.4021  1.2478
H  4.5870  -0.6772  -0.5705
H  2.4954  1.6590  -1.0209
H  -0.0421  -1.9253  1.2002
H  2.4415  -1.8704  1.3273
H  -1.2819  -0.5875  2.1137
H  -2.9738  -0.8668  1.5968
H  -2.2921  0.8435  1.6667
H  -1.2819  -1.8607  -1.3812
H  -2.0012  -2.3428  0.2471
H  -3.0230  -1.5806  -1.0024
H  -3.0541  1.3751  -0.1176
H  -2.9826  0.4191  -1.5932
H  -1.9642  2.6422  -1.9704
H  0.4605  2.6549  -1.8188
*