! b97-3c opt
%maxcore 5000
* xyz 0 1
C  1.0748  2.3604  -0.0699
C  1.8968  1.3889  0.7830
C  2.9935  0.7392  0.0069
C  2.9264  -0.7833  0.1091
C  1.8806  -1.3662  -0.7948
C  1.1998  -2.5882  -0.1655
C  -0.0909  -2.2139  0.4911
C  -1.2997  -2.8458  -0.1560
C  -2.4810  -1.9158  0.1493
C  -2.3875  -0.7155  -0.7651
C  -2.4350  0.5939  0.0232
C  -1.7701  1.6444  -0.8261
C  -1.3860  2.8681  -0.0757
C  -0.1204  2.7470  0.7170
H  1.7710  3.2323  -0.2483
H  0.8941  1.9134  -1.0420
H  1.1791  0.6605  1.2195
H  2.2650  1.9919  1.6533
H  3.9765  1.0435  0.4552
H  2.9512  0.9737  -1.0802
H  3.9295  -1.1817  -0.2047
H  2.8141  -1.1114  1.1709
H  2.2860  -1.7019  -1.7636
H  1.1019  -0.5687  -0.9776
H  1.9144  -2.9435  0.6246
H  1.0988  -3.4121  -0.8970
H  -0.2106  -1.1152  0.3968
H  -0.1267  -2.4923  1.5779
H  -1.4832  -3.8225  0.2988
H  -1.2141  -2.9125  -1.2491
H  -3.3940  -2.4970  0.0291
H  -2.3113  -1.5525  1.1970
H  -3.2512  -0.7925  -1.4710
H  -1.4774  -0.7448  -1.4079
H  -3.4973  0.8523  0.1607
H  -1.9437  0.4598  0.9970
H  -0.9690  1.1609  -1.3918
H  -2.5404  1.9538  -1.5926
H  -1.3350  3.7723  -0.6996
H  -2.2087  3.0707  0.6726
H  -0.2973  2.0892  1.6124
H  0.0770  3.7611  1.1607
*