! b97-3c opt
%maxcore 5000
* xyz 0 1
C  -1.6748  1.1891  0.0262
C  -0.3096  0.6589  -0.0254
C  -0.1260  -0.7040  0.0750
C  -1.3123  -1.5787  0.2309
C  1.1471  -1.2594  0.0319
C  2.2275  -0.4021  -0.1151
C  2.0818  0.9654  -0.2186
C  0.8062  1.4850  -0.1723
H  -2.1305  1.0117  -0.9910
H  -2.2939  0.8138  0.8415
H  -1.5889  2.3044  0.1404
H  -1.0344  -2.6057  0.5496
H  -2.0221  -1.2024  0.9898
H  -1.8632  -1.7154  -0.7396
H  1.2668  -2.3255  0.1121
H  3.2273  -0.8127  -0.1511
H  2.9294  1.6336  -0.3336
H  0.6697  2.5439  -0.2508
*